#Put Keywords Here, check Charge and Multiplicity.

01-PbI2_pcm

0  1
Pb          0.98741        -0.56184        -0.41084
I           3.52160        -1.97666        -0.66345
I           1.35160         0.98452         2.21329
O          -1.12012        -1.28574        -2.94884
C          -1.75945        -0.27649        -2.85608
O          -1.23267         0.92106        -2.55495
O          -3.09096        -0.18291        -3.02727
C          -2.24706         1.94164        -2.52305
C          -3.53131         1.17323        -2.88963
C          -1.85032         3.04875        -3.47510
H          -4.27319         1.21610        -2.09271
H          -3.97073         1.49534        -3.83857
H          -1.75365         2.66735        -4.49623
C          -0.88725         3.46707        -3.16600
H          -2.60260         3.84457        -3.46667
H          -2.31140         2.30186        -1.49364
O          -3.23062         0.62131        -0.02785
C          -3.00230         0.56678         1.15525
O          -2.92169        -0.57415         1.85104
O          -2.83720         1.63104         1.95511
C          -2.79635        -0.28761         3.26939
C          -2.40276         1.19378         3.25624
C          -1.77951        -1.20995         3.90175
H          -2.91601         1.79281         4.00904
H          -1.32089         1.32807         3.31833
H          -0.81758        -1.13144         3.38955
H          -2.12746        -2.24488         3.85346
C          -1.64225        -0.93320         4.95249
H          -3.79114        -0.42970         3.70428
O           1.83393         1.66953        -1.37509
C           1.38964         2.73039        -0.99620
O           0.09795         2.95543        -0.73085
O           2.12961         3.81486        -0.80891
C          -0.10207         4.29756        -0.23683
C           1.32298         4.86866        -0.26709
C          -0.73345         4.26281         1.13493
C           1.42303         5.74176        -0.91494
H           1.69599         5.10068         0.73300
H          -0.06813         3.77199         1.85100
H          -1.66989         3.70699         1.11304
H          -0.93297         5.28625         1.46980
H          -0.75793         4.79964        -0.95938
O          -0.20475        -2.39852         1.14936
C          -1.33900        -2.60482         0.77928
O          -1.81876        -2.08938        -0.33892
O          -2.24700        -3.35049         1.41091
C          -3.16057        -2.55777        -0.59140
C          -3.52421        -3.18458         0.76511
C          -3.15731        -3.51992        -1.75611
H          -4.14490        -2.53359         1.38270
H          -3.98292        -4.16971         0.66606
C          -2.57559        -4.41769        -1.51914
H          -2.70996        -3.03272        -2.62560
H          -4.18457        -3.82115        -1.98645
H          -3.74902        -1.66350        -0.78893
H          -1.30131         0.07922         5.01304
H          -0.91775        -1.58091         5.40021
H          -2.57360        -1.02751         5.47076
H          -2.58811        -5.08239        -2.35755
H          -3.00472        -4.90684        -0.66974
H          -1.56588        -4.14056        -1.29873
H          -0.60605         4.25008        -3.83884
H          -0.14292         2.69855        -3.18207
H          -0.97131         3.86150        -2.17491
H           1.05544         5.50521        -1.89157
H           2.45378         6.02147        -0.97988
H           0.85792         6.55428        -0.50827

